NAME : random_14
COMMENT : 60 random nodes
TYPE : TSP
DIMENSION : 60
EDGE_WEIGHT_TYPE : EUC_2D
NODE_COORD_SECTION
1 55 112
2 535 933
3 443 345
4 377 798
5 94 957
6 416 672
7 830 769
8 263 361
9 112 591
10 956 453
11 717 168
12 697 235
13 563 547
14 351 426
15 280 215
16 756 922
17 523 531
18 486 656
19 48 991
20 910 939
21 120 196
22 193 290
23 231 105
24 907 584
25 243 330
26 631 335
27 572 607
28 671 475
29 756 193
30 751 917
31 154 721
32 740 575
33 449 683
34 217 687
35 773 791
36 949 33
37 343 362
38 800 797
39 329 415
40 868 733
41 866 629
42 944 729
43 78 286
44 542 78
45 530 974
46 518 579
47 510 359
48 732 438
49 711 398
50 125 315
51 244 958
52 12 433
53 999 909
54 105 877
55 566 515
56 374 392
57 303 956
58 240 666
59 4 739
60 494 827
EOF